# Objective value = 125
WA1n 0
WA1p 0
WA2n 1
WA2p 0
WB1n 0
WB1p 0
WB2n 1
WB2p 0
WC1n 1
WC1p 0
WD1n 1
WD1p 0
WE1n 1
WE1p 0
WF1n 1
WF1p 0
WG1n 4
WG1p 0
WG2n 1
WG2p 0
WH1n 0
WH1p 4
WH2n 0
WH2p 1
WI1n 0
WI1p 4
WI2n 0
WI2p 1
WJ1n 0
WJ1p 4
WJ2n 0
WJ2p 1
WK1n 0
WK1p 4
WK2n 0
WK2p 1
WL1n 0
WL1p 4
WL2n 0
WL2p 1
WM1n 0
WM1p 4
WM2n 0
WM2p 1
WN1n 0
WN1p 4
WN2n 0
WN2p 1
WO1n 0
WO1p 37
WT1n 0
WT1p 32
5 7
a 0
b 0
c 0
d 0
e 0
f 0
g 0
h 0
i 0
j 0
k 1
l 1
m 1
n 1
o 1
p 1
q 1
r 1
s 1
t 1
u 1
v 1
w 1
x 1
y 1
z 1
